(set-logic ALL)
(declare-const x String)
(declare-const y String)
(declare-const m String)
(declare-const n String)
(assert (str.in_re x (re.+ (re.++ (str.to_re "a") (str.to_re "")))))
(assert (= 1 (str.len x)))
(assert (not (= x "b")))
(assert (not (= x "aUAa")))
(assert (not (= x "bb6' '")))
(assert (not (= x "^'\n''\u{c}'PE")))
(assert (not (= x "b9ca")))
(assert (not (= x "' ''\u{b}'b")))
(assert (not (= x "aa&l")))
(check-sat)
